robust/generate/spp_dkp_Lefebvre_et_al_2026/src/shortest_path_9_4.kp
46
295

[3.99 3.23 1.27 3.86 1.59 4.77 0.22 2.24 4.64 2.31 2.58 0.43 2.17 3.79 4.41 1.65 0.53 4.08 2.01 3.19 0.18 1.53 0.24 1.89 1.33 5.04 2.01 1.56 1.12 2.51 0.29 1.47 1.2 4.9 3.13 4.39 0.46 0.76 3.42 4.98 0.12 4.62 0.3 3.84 0.33 1.3 0.86 0.99 0.54 2.65 0.03 4.02 0.71 0.54 2.19 1.11 4.25 0.03]

[14 72 54 85 84 58 77 22 82 96 48 75 83 12 6 90 15 61 12 57 42 65 1 37 90 5 26 40 83 33 71 26 27 92 98 72 55 37 44 36 19 96 34 61 94 74 53 62 39 91 70 81 44 46 86 78 36 100]
